p cnf 36 97
a 24 4 0
e 1 2 3 5 6 7 8 9 10 11 12 13 14 15 16 17 18 19 20 21 22 23 25 26 27 28 29 30 31 32 33 34 35 36 0
3 2 0
3 -2 0
-5 2 0
-5 -4 0
-2 4 5 0
3 5 -6 0
-3 -5 -6 0
3 -5 6 0
-3 5 6 0
-7 1 0
-7 -6 0
-1 6 7 0
-8 -5 -9 0
8 5 -9 0
-8 5 9 0
8 -5 9 0
2 -10 -11 0
-2 10 -11 0
2 10 11 0
-2 -10 11 0
-9 11 -12 0
9 -11 -12 0
-9 -11 12 0
9 11 12 0
-9 12 -13 0
9 -12 -13 0
-9 -12 13 0
9 12 13 0
-15 -14 0
-15 4 0
14 -4 15 0
5 -16 -17 0
-5 16 -17 0
5 16 17 0
-5 -16 17 0
15 -17 -18 0
-15 17 -18 0
15 17 18 0
-15 -17 18 0
13 18 -19 0
-13 -18 -19 0
13 -18 19 0
-13 18 19 0
-20 -5 0
-20 5 0
21 -20 0
21 14 0
20 -14 -21 0
10 22 -23 0
-10 -22 -23 0
10 -22 23 0
-10 22 23 0
25 24 0
25 22 0
-24 -22 -25 0
-23 25 -26 0
23 -25 -26 0
-23 -25 26 0
23 25 26 0
21 26 -27 0
-21 -26 -27 0
21 -26 27 0
-21 26 27 0
28 -19 0
28 -27 0
19 27 -28 0
30 -24 0
30 -5 0
24 5 -30 0
31 -29 0
31 30 0
29 -30 -31 0
-32 28 0
-32 31 0
-28 -31 32 0
-33 7 0
-33 -32 0
-7 32 33 0
34 8 0
34 10 0
-8 -10 -34 0
-35 34 0
-35 11 0
-34 -11 35 0
36 33 0
36 35 0
-33 -35 -36 0
-23 26 -1 10 -28 -4 8 24 0
18 30 12 23 0
-7 -28 32 16 0
18 22 5 0
-15 6 -5 7 -27 18 -13 30 0
5 -14 24 -6 33 -18 -25 0
30 -3 13 10 0
22 6 -15 -13 0
-19 18 -11 30 9 8 0
36 0
